<number of tasks>
58

<cycle time>
82

<task times>
1 10
2 53
3 41
4 36
5 35
6 17
7 34
8 23
9 14
10 52
11 33
12 34
13 12
14 52
15 12
16 33
17 44
18 7
19 15
20 13
21 29
22 37
23 43
24 23
25 24
26 9
27 16
28 12
29 26
30 22
31 51
32 47
33 34
34 23
35 12
36 52
37 12
38 33
39 44
40 7
41 15
42 13
43 29
44 37
45 43
46 23
47 24
48 9
49 16
50 12
51 26
52 12
53 52
54 12
55 33
56 44
57 7
58 15

<precedence relations>
1,9
2,25
3,21
3,22
4,10
5,36
6,23
6,24
7,43
8,44
9,11
11,13
11,14
11,15
12,17
13,17
14,17
15,17
16,18
17,20
18,19
19,23
20,21
20,25
21,26
21,44
22,27
23,31
24,31
25,38
26,29
27,30
28,32
28,33
29,31
30,34
31,36
32,45
33,35
34,36
35,43
36,37
36,38
37,39
37,40
37,41
38,52
39,43
40,43
41,42
42,43
43,45
44,45
45,46
45,48
45,49
46,47
46,50
47,51
48,55
49,58
50,58
51,52
52,53
53,54
54,55
54,56
55,57
56,57
57,58

<setup times forward>
1,2:2
1,3:7
1,6:2
1,7:3
1,8:3
1,9:4
1,10:2
1,12:4
1,16:7
1,18:7
1,19:2
1,22:5
1,23:5
1,24:3
1,28:2
1,32:1
1,33:4
1,34:4
1,35:2
2,1:2
2,3:5
2,4:2
2,5:2
2,7:1
2,8:1
2,9:2
2,11:3
2,12:2
2,13:4
2,14:4
2,15:4
2,16:5
2,17:2
2,18:5
2,20:6
2,21:6
2,22:3
2,23:3
2,24:1
2,25:2
2,26:6
2,27:2
2,29:1
2,30:2
2,31:1
2,32:3
2,33:2
2,34:6
2,36:2
2,37:4
2,39:7
2,40:6
2,41:4
2,42:4
2,43:6
2,44:4
2,45:6
2,46:5
2,47:5
2,48:1
2,49:1
2,50:4
2,51:5
3,1:7
3,2:5
3,4:7
3,5:7
3,6:5
3,7:4
3,8:4
3,9:3
3,10:5
3,11:8
3,12:3
3,13:9
3,14:9
3,15:9
3,17:7
3,19:5
3,20:11
3,21:11
3,22:2
3,23:2
3,24:4
3,25:3
3,28:5
3,32:8
3,33:3
3,35:5
4,2:2
4,3:7
4,6:2
4,7:3
4,8:3
4,9:4
4,10:2
4,11:1
4,12:4
4,13:2
4,14:2
4,15:2
4,16:7
4,18:7
4,19:2
4,20:4
4,21:4
4,22:5
4,23:5
4,24:3
4,25:4
4,26:4
4,28:2
4,29:1
4,31:1
4,32:1
4,33:4
4,34:4
4,35:2
4,36:4
4,37:6
4,38:5
4,39:5
4,40:4
4,41:6
4,42:6
4,43:4
4,44:6
4,45:4
4,46:7
4,47:7
4,48:3
4,49:3
4,50:6
4,51:7
4,52:1
4,53:1
4,54:3
4,55:3
4,56:6
4,57:6
4,58:6
5,2:2
5,3:7
5,6:2
5,7:3
5,8:3
5,9:4
5,10:2
5,11:1
5,12:4
5,13:2
5,14:2
5,15:2
5,16:7
5,18:7
5,19:2
5,20:4
5,21:4
5,22:5
5,23:5
5,24:3
5,25:4
5,26:4
5,28:2
5,29:1
5,31:1
5,32:1
5,33:4
5,34:4
5,35:2
5,36:4
5,44:6
6,1:2
6,3:5
6,4:2
6,5:2
6,7:1
6,8:1
6,9:2
6,11:3
6,12:2
6,13:4
6,14:4
6,15:4
6,16:5
6,17:2
6,18:5
6,20:6
6,21:6
6,22:3
6,23:3
6,24:1
6,25:2
6,26:6
6,27:2
6,29:1
6,30:2
6,32:3
6,33:2
6,34:6
6,44:4
7,1:3
7,2:1
7,3:4
7,4:3
7,5:3
7,6:1
7,9:1
7,10:1
7,11:4
7,12:1
7,13:5
7,14:5
7,15:5
7,16:4
7,17:3
7,18:4
7,19:1
7,20:7
7,21:7
7,22:2
7,23:2
7,25:1
7,26:7
7,27:3
7,28:1
7,29:2
7,30:3
7,31:2
7,32:4
7,33:1
7,34:7
7,35:1
7,36:1
7,37:3
7,38:8
7,39:8
7,40:7
7,41:3
7,42:3
7,43:7
7,44:3
8,1:3
8,2:1
8,3:4
8,4:3
8,5:3
8,6:1
8,9:1
8,10:1
8,11:4
8,12:1
8,13:5
8,14:5
8,15:5
8,16:4
8,17:3
8,18:4
8,19:1
8,20:7
8,21:7
8,22:2
8,23:2
8,25:1
8,26:7
8,27:3
8,28:1
8,29:2
8,30:3
8,31:2
8,32:4
8,33:1
8,34:7
8,35:1
8,36:1
8,37:3
8,38:8
8,39:8
8,40:7
8,41:3
8,42:3
8,43:7
8,44:3
9,2:2
9,3:3
9,4:4
9,5:4
9,6:2
9,7:1
9,8:1
9,10:2
9,11:5
9,16:3
9,18:3
9,19:2
9,22:1
9,23:1
9,24:1
9,27:4
9,28:2
9,30:4
9,32:5
9,34:8
9,35:2
10,1:2
10,3:5
10,5:2
10,7:1
10,8:1
10,9:2
10,11:3
10,12:2
10,13:4
10,14:4
10,15:4
10,16:5
10,17:2
10,18:5
10,20:6
10,21:6
10,22:3
10,23:3
10,24:1
10,25:2
10,26:6
10,27:2
10,29:1
10,30:2
10,31:1
10,32:3
10,33:2
10,34:6
10,36:2
10,37:4
10,38:7
10,39:7
10,40:6
10,41:4
10,42:4
10,43:6
10,44:4
10,45:6
10,46:5
10,47:5
10,48:1
10,49:1
10,50:4
10,51:5
10,52:1
10,53:1
10,54:1
10,55:1
10,56:4
10,57:4
10,58:4
11,2:3
11,3:8
11,4:1
11,5:1
11,6:3
11,7:4
11,8:4
11,10:3
11,12:5
11,13:1
11,14:1
11,15:1
11,16:8
11,18:8
11,19:3
11,22:6
11,23:6
11,24:4
11,27:1
11,28:3
11,30:1
11,33:5
11,34:3
11,35:3
12,1:4
12,2:2
12,3:3
12,4:4
12,5:4
12,6:2
12,7:1
12,8:1
12,10:2
12,11:5
12,13:6
12,14:6
12,15:6
12,16:3
12,17:4
12,18:3
12,19:2
12,22:1
12,23:1
12,24:1
12,27:4
12,28:2
12,30:4
12,32:5
12,34:8
12,35:2
13,2:4
13,3:9
13,4:2
13,5:2
13,6:4
13,7:5
13,8:5
13,10:4
13,12:6
13,16:9
13,17:2
13,18:9
13,19:4
13,22:7
13,23:7
13,24:5
13,27:2
13,28:4
13,30:2
13,32:1
13,33:6
13,34:2
13,35:4
14,2:4
14,3:9
14,4:2
14,5:2
14,6:4
14,7:5
14,8:5
14,10:4
14,12:6
14,16:9
14,17:2
14,18:9
14,19:4
14,22:7
14,23:7
14,24:5
14,27:2
14,28:4
14,30:2
14,32:1
14,33:6
14,34:2
14,35:4
15,2:4
15,3:9
15,4:2
15,5:2
15,6:4
15,7:5
15,8:5
15,10:4
15,12:6
15,16:9
15,17:2
15,18:9
15,19:4
15,22:7
15,23:7
15,24:5
15,27:2
15,28:4
15,30:2
15,32:1
15,33:6
15,34:2
15,35:4
16,1:7
16,2:5
16,4:7
16,5:7
16,6:5
16,7:4
16,8:4
16,9:3
16,10:5
16,11:8
16,12:3
16,13:9
16,14:9
16,15:9
16,17:7
16,20:11
16,21:11
16,22:2
16,24:4
16,25:3
16,26:11
16,27:7
16,28:5
16,29:6
16,30:7
16,32:8
16,33:3
16,34:11
16,35:5
16,44:1
17,2:2
17,3:7
17,6:2
17,7:3
17,8:3
17,10:2
17,16:7
17,18:7
17,19:2
17,20:4
17,22:5
17,23:5
17,24:3
17,28:2
17,32:1
17,33:4
17,34:4
17,35:2
18,1:7
18,2:5
18,4:7
18,5:7
18,6:5
18,7:4
18,8:4
18,9:3
18,10:5
18,11:8
18,12:3
18,13:9
18,14:9
18,15:9
18,17:7
18,19:5
18,20:11
18,21:11
18,22:2
18,24:4
18,25:3
18,26:11
18,27:7
18,28:5
18,29:6
18,30:7
18,32:8
18,33:3
18,34:11
18,35:5
18,44:1
19,1:2
19,3:5
19,4:2
19,5:2
19,7:1
19,8:1
19,9:2
19,11:3
19,12:2
19,13:4
19,14:4
19,15:4
19,17:2
19,20:6
19,21:6
19,22:3
19,23:3
19,24:1
19,25:2
19,26:6
19,27:2
19,29:1
19,30:2
19,32:3
19,33:2
19,34:6
19,44:4
20,2:6
20,3:11
20,4:4
20,5:4
20,6:6
20,7:7
20,8:7
20,10:6
20,16:11
20,18:11
20,19:6
20,22:9
20,23:9
20,24:7
20,25:8
20,27:4
20,28:6
20,30:4
20,32:3
20,33:8
20,35:6
21,2:6
21,4:4
21,5:4
21,6:6
21,7:7
21,8:7
21,10:6
21,16:11
21,18:11
21,19:6
21,22:9
21,23:9
21,24:7
21,25:8
21,27:4
21,28:6
21,30:4
21,32:3
21,33:8
21,35:6
21,44:10
22,1:5
22,2:3
22,4:5
22,5:5
22,6:3
22,7:2
22,8:2
22,9:1
22,10:3
22,11:6
22,12:1
22,13:7
22,14:7
22,15:7
22,16:2
22,17:5
22,18:2
22,19:3
22,20:9
22,21:9
22,24:2
22,25:1
22,26:9
22,27:5
22,28:3
22,29:4
22,31:4
22,32:6
22,33:1
22,35:3
22,44:1
23,1:5
23,2:3
23,3:2
23,4:5
23,5:5
23,7:2
23,8:2
23,9:1
23,10:3
23,11:6
23,12:1
23,13:7
23,14:7
23,15:7
23,17:5
23,20:9
23,21:9
23,24:2
23,25:1
23,26:9
23,27:5
23,28:3
23,29:4
23,30:5
23,31:4
23,32:6
23,33:1
23,34:9
23,35:3
23,44:1
24,1:3
24,2:1
24,3:4
24,4:3
24,5:3
24,9:1
24,10:1
24,11:4
24,12:1
24,13:5
24,14:5
24,15:5
24,16:4
24,17:3
24,18:4
24,19:1
24,20:7
24,21:7
24,22:2
24,23:2
24,25:1
24,26:7
24,27:3
24,28:1
24,29:2
24,30:3
24,31:2
24,32:4
24,33:1
24,34:7
24,35:1
24,44:3
25,3:3
25,4:4
25,5:4
25,6:2
25,7:1
25,8:1
25,10:2
25,16:3
25,18:3
25,19:2
25,21:8
25,22:1
25,23:1
25,24:1
25,26:8
25,27:4
25,28:2
25,29:3
25,30:4
25,31:3
25,32:5
25,34:8
25,35:2
25,37:2
25,38:9
25,39:9
25,40:8
25,41:2
25,42:2
25,43:8
25,44:2
25,45:8
25,46:3
25,47:3
25,48:1
25,49:1
25,50:2
25,51:3
26,2:6
26,4:4
26,5:4
26,6:6
26,7:7
26,8:7
26,10:6
26,16:11
26,18:11
26,19:6
26,22:9
26,23:9
26,24:7
26,25:8
26,27:4
26,28:6
26,29:5
26,30:4
26,32:3
26,33:8
26,35:6
26,44:10
27,2:2
27,6:2
27,7:3
27,8:3
27,9:4
27,10:2
27,11:1
27,12:4
27,13:2
27,14:2
27,15:2
27,16:7
27,18:7
27,19:2
27,20:4
27,21:4
27,23:5
27,24:3
27,25:4
27,26:4
27,28:2
27,29:1
27,31:1
27,32:1
27,33:4
27,35:2
27,44:6
28,1:2
28,3:5
28,4:2
28,5:2
28,7:1
28,8:1
28,9:2
28,11:3
28,12:2
28,13:4
28,14:4
28,15:4
28,16:5
28,17:2
28,18:5
28,20:6
28,21:6
28,22:3
28,23:3
28,24:1
28,25:2
28,26:6
28,27:2
28,29:1
28,30:2
28,31:1
28,32:3
28,33:2
28,34:6
28,36:2
28,37:4
28,38:7
28,39:7
28,40:6
28,41:4
28,42:4
28,44:4
29,2:1
29,4:1
29,5:1
29,6:1
29,7:2
29,8:2
29,10:1
29,16:6
29,18:6
29,19:1
29,22:4
29,23:4
29,24:2
29,25:3
29,27:1
29,28:1
29,30:1
29,32:2
29,33:3
29,34:5
29,35:1
29,44:5
30,2:2
30,6:2
30,7:3
30,8:3
30,9:4
30,10:2
30,11:1
30,12:4
30,13:2
30,14:2
30,15:2
30,16:7
30,18:7
30,19:2
30,20:4
30,21:4
30,23:5
30,24:3
30,25:4
30,26:4
30,28:2
30,29:1
30,31:1
30,32:1
30,33:4
30,34:4
30,35:2
30,44:6
31,2:1
31,4:1
31,5:1
31,7:2
31,8:2
31,10:1
31,22:4
31,25:3
31,27:1
31,28:1
31,30:1
31,32:2
31,33:3
31,34:5
31,35:1
31,36:3
31,44:5
32,1:1
32,2:3
32,3:8
32,4:1
32,5:1
32,6:3
32,7:4
32,8:4
32,9:5
32,10:3
32,12:5
32,13:1
32,14:1
32,15:1
32,16:8
32,17:1
32,18:8
32,19:3
32,20:3
32,21:3
32,22:6
32,23:6
32,24:4
32,25:5
32,26:3
32,27:1
32,29:2
32,30:1
32,31:2
32,33:5
32,34:3
32,35:3
32,36:5
32,37:7
32,38:4
32,39:4
32,40:3
32,41:7
32,42:7
32,43:3
32,44:7
32,45:3
33,1:4
33,2:2
33,3:3
33,4:4
33,5:4
33,6:2
33,7:1
33,8:1
33,10:2
33,11:5
33,13:6
33,14:6
33,15:6
33,16:3
33,17:4
33,18:3
33,19:2
33,20:8
33,21:8
33,22:1
33,23:1
33,24:1
33,26:8
33,27:4
33,29:3
33,30:4
33,31:3
33,32:5
33,34:8
33,35:2
33,37:2
33,38:9
33,39:9
33,40:8
33,41:2
33,42:2
33,44:2
34,1:4
34,2:6
34,4:4
34,5:4
34,6:6
34,7:7
34,8:7
34,9:8
34,10:6
34,11:3
34,12:8
34,13:2
34,14:2
34,15:2
34,16:11
34,17:4
34,18:11
34,19:6
34,23:9
34,24:7
34,25:8
34,28:6
34,29:5
34,31:5
34,32:3
34,33:8
34,35:6
34,36:8
34,44:10
35,1:2
35,3:5
35,4:2
35,5:2
35,7:1
35,8:1
35,9:2
35,11:3
35,12:2
35,13:4
35,14:4
35,15:4
35,16:5
35,17:2
35,18:5
35,20:6
35,21:6
35,22:3
35,23:3
35,24:1
35,25:2
35,26:6
35,27:2
35,29:1
35,30:2
35,31:1
35,32:3
35,34:6
35,36:2
35,37:4
35,38:7
35,39:7
35,40:6
35,41:4
35,42:4
35,43:6
35,44:4
36,2:2
36,4:4
36,7:1
36,8:1
36,10:2
36,28:2
36,32:5
36,35:2
36,37:2
36,38:9
36,44:2
37,2:4
37,4:6
37,7:3
37,8:3
37,10:4
37,25:2
37,28:4
37,32:7
37,33:2
37,35:4
37,38:11
37,39:11
37,40:10
38,4:5
38,7:8
38,8:8
38,10:7
38,28:7
38,32:4
38,33:9
38,35:7
38,37:11
38,40:1
38,41:11
38,42:11
38,43:1
38,44:11
38,45:1
38,46:12
38,47:12
38,48:8
38,49:8
38,50:11
38,51:12
38,52:6
39,2:7
39,4:5
39,7:8
39,8:8
39,10:7
39,25:9
39,28:7
39,32:4
39,33:9
39,35:7
39,40:1
39,41:11
39,42:11
39,43:1
39,44:11
40,2:6
40,4:4
40,7:7
40,8:7
40,10:6
40,25:8
40,28:6
40,32:3
40,33:8
40,35:6
40,38:1
40,39:1
40,41:10
40,42:10
40,44:10
41,2:4
41,4:6
41,7:3
41,8:3
41,10:4
41,25:2
41,28:4
41,32:7
41,33:2
41,35:4
41,38:11
41,39:11
41,40:10
42,2:4
42,4:6
42,7:3
42,8:3
42,10:4
42,25:2
42,28:4
42,32:7
42,33:2
42,35:4
42,38:11
42,39:11
42,40:10
42,43:10
43,2:6
43,4:4
43,8:7
43,10:6
43,25:8
43,32:3
43,38:1
43,44:10
44,2:4
44,4:6
44,5:6
44,6:4
44,7:3
44,10:4
44,16:1
44,18:1
44,19:4
44,22:1
44,23:1
44,24:3
44,25:2
44,26:10
44,27:6
44,28:4
44,29:5
44,30:6
44,31:5
44,32:7
44,33:2
44,34:10
44,35:4
44,36:2
44,38:11
44,39:11
44,40:10
44,43:10
44,45:10
45,2:6
45,4:4
45,10:6
45,25:8
45,38:1
45,46:11
45,48:7
45,49:7
46,2:5
46,4:7
46,10:5
46,25:3
46,38:12
46,48:4
46,49:4
46,50:1
47,2:5
47,4:7
47,10:5
47,25:3
47,38:12
47,48:4
47,49:4
47,50:1
48,2:1
48,4:3
48,10:1
48,25:1
48,38:8
48,46:4
48,47:4
48,50:3
48,51:4
48,52:2
48,53:2
48,56:3
49,2:1
49,4:3
49,10:1
49,25:1
49,38:8
49,46:4
49,47:4
49,50:3
49,51:4
49,52:2
49,53:2
49,56:3
49,57:3
49,58:3
50,2:4
50,4:6
50,10:4
50,25:2
50,38:11
50,47:1
50,48:3
50,49:3
50,51:1
50,52:5
50,53:5
50,54:3
50,55:3
51,2:5
51,4:7
51,10:5
51,25:3
51,38:12
51,48:4
51,49:4
51,50:1
51,52:6
52,4:1
52,10:1
52,48:2
52,49:2
52,50:5
53,4:1
53,10:1
53,48:2
53,49:2
53,50:5
53,54:2
54,4:3
54,10:1
54,50:3
54,56:3
55,4:3
55,10:1
55,50:3
55,56:3
55,57:3
56,4:6
56,10:4
56,48:3
56,49:3
56,55:3
57,4:6
57,10:4
57,49:3
58,4:6
58,10:4

<setup times backward>
1,32:1
1,34:4
2,1:2
2,4:2
2,5:2
2,11:3
2,13:4
2,14:4
2,15:4
2,17:2
2,20:6
2,21:6
2,26:6
2,27:2
2,29:1
2,30:2
2,31:1
2,32:3
2,34:6
2,39:7
2,40:6
2,43:6
2,45:6
3,1:7
3,2:5
3,4:7
3,5:7
3,6:5
3,7:4
3,8:4
3,9:3
3,10:5
3,11:8
3,12:3
3,13:9
3,14:9
3,15:9
3,17:7
3,19:5
3,20:11
3,23:2
3,24:4
3,25:3
3,28:5
3,32:8
3,33:3
3,35:5
4,11:1
4,13:2
4,14:2
4,15:2
4,20:4
4,21:4
4,26:4
4,32:1
4,34:4
4,38:5
4,39:5
4,40:4
4,43:4
4,45:4
5,11:1
5,13:2
5,14:2
5,15:2
5,20:4
5,21:4
5,26:4
5,32:1
5,34:4
6,1:2
6,4:2
6,5:2
6,11:3
6,13:4
6,14:4
6,15:4
6,17:2
6,20:6
6,21:6
6,26:6
6,27:2
6,29:1
6,30:2
6,32:3
6,34:6
7,1:3
7,2:1
7,4:3
7,5:3
7,6:1
7,10:1
7,11:4
7,13:5
7,14:5
7,15:5
7,17:3
7,19:1
7,20:7
7,21:7
7,26:7
7,27:3
7,28:1
7,29:2
7,30:3
7,31:2
7,32:4
7,34:7
7,35:1
7,38:8
7,39:8
7,40:7
8,1:3
8,2:1
8,4:3
8,5:3
8,6:1
8,10:1
8,11:4
8,13:5
8,14:5
8,15:5
8,17:3
8,19:1
8,20:7
8,21:7
8,26:7
8,27:3
8,28:1
8,29:2
8,30:3
8,31:2
8,32:4
8,34:7
8,35:1
8,38:8
8,39:8
8,40:7
8,43:7
9,1:4
9,2:2
9,4:4
9,5:4
9,6:2
9,7:1
9,8:1
9,10:2
9,19:2
9,24:1
9,27:4
9,28:2
9,30:4
9,32:5
9,34:8
9,35:2
10,1:2
10,4:2
10,5:2
10,11:3
10,13:4
10,14:4
10,15:4
10,17:2
10,20:6
10,21:6
10,26:6
10,27:2
10,29:1
10,30:2
10,31:1
10,32:3
10,34:6
10,38:7
10,39:7
10,40:6
10,43:6
10,45:6
10,52:1
10,53:1
11,34:3
12,1:4
12,2:2
12,4:4
12,5:4
12,6:2
12,7:1
12,8:1
12,10:2
12,11:5
12,13:6
12,14:6
12,15:6
12,19:2
12,24:1
12,27:4
12,28:2
12,30:4
12,32:5
12,34:8
12,35:2
13,34:2
14,34:2
15,34:2
16,1:7
16,2:5
16,4:7
16,5:7
16,6:5
16,7:4
16,8:4
16,9:3
16,10:5
16,11:8
16,12:3
16,13:9
16,14:9
16,15:9
16,17:7
16,20:11
16,21:11
16,22:2
16,24:4
16,25:3
16,26:11
16,27:7
16,28:5
16,29:6
16,30:7
16,32:8
16,33:3
16,34:11
16,35:5
16,44:1
17,11:1
17,13:2
17,14:2
17,15:2
17,32:1
17,34:4
18,1:7
18,2:5
18,4:7
18,5:7
18,6:5
18,7:4
18,8:4
18,9:3
18,10:5
18,11:8
18,12:3
18,13:9
18,14:9
18,15:9
18,17:7
18,20:11
18,21:11
18,22:2
18,24:4
18,25:3
18,26:11
18,27:7
18,28:5
18,29:6
18,30:7
18,32:8
18,33:3
18,34:11
18,35:5
18,44:1
19,1:2
19,4:2
19,5:2
19,11:3
19,13:4
19,14:4
19,15:4
19,17:2
19,20:6
19,21:6
19,26:6
19,27:2
19,29:1
19,30:2
19,32:3
19,34:6
22,1:5
22,2:3
22,4:5
22,5:5
22,6:3
22,7:2
22,8:2
22,9:1
22,10:3
22,11:6
22,12:1
22,13:7
22,14:7
22,15:7
22,17:5
22,19:3
22,20:9
22,21:9
22,24:2
22,25:1
22,26:9
22,28:3
22,29:4
22,31:4
22,32:6
22,33:1
22,35:3
23,1:5
23,2:3
23,4:5
23,5:5
23,6:3
23,7:2
23,8:2
23,9:1
23,10:3
23,11:6
23,12:1
23,13:7
23,14:7
23,15:7
23,17:5
23,19:3
23,20:9
23,21:9
23,24:2
23,25:1
23,26:9
23,27:5
23,28:3
23,29:4
23,30:5
23,32:6
23,33:1
23,34:9
23,35:3
24,1:3
24,2:1
24,4:3
24,5:3
24,6:1
24,10:1
24,11:4
24,13:5
24,14:5
24,15:5
24,17:3
24,19:1
24,20:7
24,21:7
24,26:7
24,27:3
24,28:1
24,29:2
24,30:3
24,32:4
24,34:7
24,35:1
25,1:4
25,2:2
25,4:4
25,5:4
25,6:2
25,7:1
25,8:1
25,10:2
25,11:5
25,13:6
25,14:6
25,15:6
25,17:4
25,19:2
25,20:8
25,21:8
25,24:1
25,26:8
25,27:4
25,28:2
25,29:3
25,30:4
25,31:3
25,32:5
25,34:8
25,35:2
25,39:9
25,40:8
25,43:8
25,45:8
25,48:1
25,49:1
27,11:1
27,13:2
27,14:2
27,15:2
27,20:4
27,21:4
27,26:4
27,32:1
28,1:2
28,4:2
28,5:2
28,11:3
28,13:4
28,14:4
28,15:4
28,17:2
28,20:6
28,21:6
28,26:6
28,27:2
28,29:1
28,30:2
28,31:1
28,34:6
28,38:7
28,39:7
28,40:6
29,1:1
29,4:1
29,5:1
29,11:2
29,13:3
29,14:3
29,15:3
29,17:1
29,20:5
29,21:5
29,26:5
29,27:1
29,30:1
29,32:2
29,34:5
30,11:1
30,13:2
30,14:2
30,15:2
30,20:4
30,21:4
30,26:4
30,32:1
31,1:1
31,4:1
31,5:1
31,11:2
31,13:3
31,14:3
31,15:3
31,17:1
31,20:5
31,21:5
31,26:5
31,27:1
31,30:1
31,32:2
31,34:5
32,13:1
32,14:1
32,15:1
32,20:3
32,21:3
32,26:3
32,34:3
32,38:4
32,39:4
32,40:3
32,43:3
33,1:4
33,2:2
33,4:4
33,5:4
33,6:2
33,7:1
33,8:1
33,10:2
33,11:5
33,13:6
33,14:6
33,15:6
33,17:4
33,19:2
33,20:8
33,21:8
33,24:1
33,26:8
33,27:4
33,28:2
33,29:3
33,30:4
33,31:3
33,32:5
33,34:8
33,38:9
33,39:9
33,40:8
35,1:2
35,4:2
35,5:2
35,11:3
35,13:4
35,14:4
35,15:4
35,17:2
35,20:6
35,21:6
35,26:6
35,27:2
35,29:1
35,30:2
35,31:1
35,32:3
35,34:6
35,38:7
35,39:7
35,40:6
36,1:4
36,2:2
36,4:4
36,5:4
36,6:2
36,7:1
36,8:1
36,10:2
36,11:5
36,13:6
36,14:6
36,15:6
36,17:4
36,19:2
36,20:8
36,21:8
36,24:1
36,26:8
36,27:4
36,28:2
36,29:3
36,30:4
36,31:3
36,32:5
36,34:8
36,35:2
37,1:6
37,2:4
37,4:6
37,5:6
37,6:4
37,7:3
37,8:3
37,9:2
37,10:4
37,11:7
37,12:2
37,13:8
37,14:8
37,15:8
37,17:6
37,19:4
37,20:10
37,21:10
37,22:1
37,23:1
37,24:3
37,25:2
37,26:10
37,27:6
37,28:4
37,29:5
37,30:6
37,31:5
37,32:7
37,33:2
37,34:10
37,35:4
37,36:2
37,38:11
40,38:1
40,39:1
41,1:6
41,2:4
41,4:6
41,5:6
41,6:4
41,7:3
41,8:3
41,9:2
41,10:4
41,11:7
41,12:2
41,13:8
41,14:8
41,15:8
41,17:6
41,19:4
41,20:10
41,21:10
41,22:1
41,23:1
41,24:3
41,25:2
41,26:10
41,27:6
41,28:4
41,29:5
41,30:6
41,31:5
41,32:7
41,33:2
41,34:10
41,35:4
41,36:2
41,38:11
41,39:11
41,40:10
42,1:6
42,2:4
42,4:6
42,5:6
42,6:4
42,7:3
42,8:3
42,9:2
42,10:4
42,11:7
42,12:2
42,13:8
42,14:8
42,15:8
42,17:6
42,19:4
42,20:10
42,21:10
42,22:1
42,23:1
42,24:3
42,25:2
42,26:10
42,27:6
42,28:4
42,29:5
42,30:6
42,31:5
42,32:7
42,33:2
42,34:10
42,35:4
42,36:2
42,38:11
42,39:11
42,40:10
43,38:1
43,39:1
44,1:6
44,2:4
44,4:6
44,5:6
44,6:4
44,7:3
44,8:3
44,9:2
44,10:4
44,11:7
44,12:2
44,13:8
44,14:8
44,15:8
44,17:6
44,19:4
44,20:10
44,21:10
44,22:1
44,23:1
44,24:3
44,25:2
44,26:10
44,27:6
44,28:4
44,29:5
44,30:6
44,31:5
44,32:7
44,33:2
44,34:10
44,35:4
44,36:2
44,38:11
44,39:11
44,40:10
44,43:10
45,38:1
45,39:1
46,1:7
46,2:5
46,4:7
46,5:7
46,6:5
46,7:4
46,8:4
46,9:3
46,10:5
46,11:8
46,12:3
46,13:9
46,14:9
46,15:9
46,17:7
46,19:5
46,20:11
46,21:11
46,22:2
46,23:2
46,24:4
46,25:3
46,26:11
46,27:7
46,28:5
46,29:6
46,30:7
46,31:6
46,32:8
46,33:3
46,34:11
46,35:5
46,36:3
46,37:1
46,38:12
46,39:12
46,40:11
46,41:1
46,42:1
46,43:11
46,44:1
46,45:11
46,48:4
46,49:4
47,1:7
47,2:5
47,4:7
47,5:7
47,6:5
47,7:4
47,8:4
47,9:3
47,10:5
47,11:8
47,12:3
47,13:9
47,14:9
47,15:9
47,17:7
47,19:5
47,20:11
47,21:11
47,22:2
47,23:2
47,24:4
47,25:3
47,26:11
47,27:7
47,28:5
47,29:6
47,30:7
47,31:6
47,32:8
47,33:3
47,34:11
47,35:5
47,36:3
47,37:1
47,38:12
47,39:12
47,40:11
47,41:1
47,42:1
47,43:11
47,44:1
47,45:11
47,48:4
47,49:4
47,50:1
48,1:3
48,2:1
48,4:3
48,5:3
48,6:1
48,10:1
48,11:4
48,13:5
48,14:5
48,15:5
48,17:3
48,19:1
48,20:7
48,21:7
48,26:7
48,27:3
48,28:1
48,29:2
48,30:3
48,31:2
48,32:4
48,34:7
48,35:1
48,38:8
48,39:8
48,40:7
48,43:7
48,45:7
48,52:2
48,53:2
49,1:3
49,2:1
49,4:3
49,5:3
49,6:1
49,10:1
49,11:4
49,13:5
49,14:5
49,15:5
49,17:3
49,19:1
49,20:7
49,21:7
49,26:7
49,27:3
49,28:1
49,29:2
49,30:3
49,31:2
49,32:4
49,34:7
49,35:1
49,38:8
49,39:8
49,40:7
49,43:7
49,45:7
49,52:2
49,53:2
50,1:6
50,2:4
50,4:6
50,5:6
50,6:4
50,7:3
50,8:3
50,9:2
50,10:4
50,11:7
50,12:2
50,13:8
50,14:8
50,15:8
50,17:6
50,19:4
50,20:10
50,21:10
50,22:1
50,23:1
50,24:3
50,25:2
50,26:10
50,27:6
50,28:4
50,29:5
50,30:6
50,31:5
50,32:7
50,33:2
50,34:10
50,35:4
50,36:2
50,38:11
50,39:11
50,40:10
50,43:10
50,45:10
50,48:3
50,49:3
50,52:5
50,53:5
50,54:3
50,55:3
51,1:7
51,2:5
51,4:7
51,5:7
51,6:5
51,7:4
51,8:4
51,9:3
51,10:5
51,11:8
51,12:3
51,13:9
51,14:9
51,15:9
51,17:7
51,19:5
51,20:11
51,21:11
51,22:2
51,23:2
51,24:4
51,25:3
51,26:11
51,27:7
51,28:5
51,29:6
51,30:7
51,31:6
51,32:8
51,33:3
51,34:11
51,35:5
51,36:3
51,37:1
51,38:12
51,39:12
51,40:11
51,41:1
51,42:1
51,43:11
51,44:1
51,45:11
51,48:4
51,49:4
51,50:1
52,1:1
52,4:1
52,5:1
52,11:2
52,13:3
52,14:3
52,15:3
52,17:1
52,20:5
52,21:5
52,26:5
52,27:1
52,30:1
52,32:2
52,34:5
52,38:6
52,39:6
52,40:5
52,43:5
52,45:5
53,1:1
53,4:1
53,5:1
53,11:2
53,13:3
53,14:3
53,15:3
53,17:1
53,20:5
53,21:5
53,26:5
53,27:1
53,30:1
53,32:2
53,34:5
53,38:6
53,39:6
53,40:5
53,43:5
53,45:5
54,1:3
54,2:1
54,4:3
54,5:3
54,6:1
54,10:1
54,11:4
54,13:5
54,14:5
54,15:5
54,17:3
54,19:1
54,20:7
54,21:7
54,26:7
54,27:3
54,28:1
54,29:2
54,30:3
54,31:2
54,32:4
54,34:7
54,35:1
54,38:8
54,39:8
54,40:7
54,43:7
54,45:7
54,52:2
54,53:2
55,1:3
55,2:1
55,4:3
55,5:3
55,6:1
55,10:1
55,11:4
55,13:5
55,14:5
55,15:5
55,17:3
55,19:1
55,20:7
55,21:7
55,26:7
55,27:3
55,28:1
55,29:2
55,30:3
55,31:2
55,32:4
55,34:7
55,35:1
55,38:8
55,39:8
55,40:7
55,43:7
55,45:7
55,52:2
55,53:2
56,1:6
56,2:4
56,4:6
56,5:6
56,6:4
56,7:3
56,8:3
56,9:2
56,10:4
56,11:7
56,12:2
56,13:8
56,14:8
56,15:8
56,17:6
56,19:4
56,20:10
56,21:10
56,22:1
56,23:1
56,24:3
56,25:2
56,26:10
56,27:6
56,28:4
56,29:5
56,30:6
56,31:5
56,32:7
56,33:2
56,34:10
56,35:4
56,36:2
56,38:11
56,39:11
56,40:10
56,43:10
56,45:10
56,48:3
56,49:3
56,52:5
56,53:5
56,54:3
56,55:3
57,1:6
57,2:4
57,4:6
57,5:6
57,6:4
57,7:3
57,8:3
57,9:2
57,10:4
57,11:7
57,12:2
57,13:8
57,14:8
57,15:8
57,17:6
57,19:4
57,20:10
57,21:10
57,22:1
57,23:1
57,24:3
57,25:2
57,26:10
57,27:6
57,28:4
57,29:5
57,30:6
57,31:5
57,32:7
57,33:2
57,34:10
57,35:4
57,36:2
57,38:11
57,39:11
57,40:10
57,43:10
57,45:10
57,48:3
57,49:3
57,52:5
57,53:5
57,54:3
57,55:3
58,1:6
58,2:4
58,4:6
58,5:6
58,6:4
58,7:3
58,8:3
58,9:2
58,10:4
58,11:7
58,12:2
58,13:8
58,14:8
58,15:8
58,17:6
58,19:4
58,20:10
58,21:10
58,22:1
58,23:1
58,24:3
58,25:2
58,26:10
58,27:6
58,28:4
58,29:5
58,30:6
58,31:5
58,32:7
58,33:2
58,34:10
58,35:4
58,36:2
58,38:11
58,39:11
58,40:10
58,43:10
58,45:10
58,48:3
58,49:3
58,52:5
58,53:5
58,54:3
58,55:3

<end>

<optimal SALBP-1 value>
20


<rand seed>
467321153

